VER
4

OBJSENSE
MIN

QCECONES
1 2
2
2 2
0

VAR
11 1
@0:SVECQCE 11

CON
5 1
L= 5

OBJACOORD
5
1 1.0
3 -1.0
5 -2.8284271247461903
6 -1.0
10 1.0

ACOORD
13
0 3 -1.0
0 6 1.0
1 2 1.0
1 4 -1.0
1 8 -1.0
1 9 1.0
2 3 1.0
2 6 -1.0
3 1 1.0
3 3 1.0
3 6 1.0
3 10 1.0
4 0 1.0

BCOORD
1
3 1.0
